\ Model SU-StripPacking-10
\ LP format - for model browsing. Use MPS format to capture full model detail.
Minimize
  h
Subject To
 Height[0]: - c[0,1] + h >= 10
 Height[1]: - c[1,1] + h >= 12
 Height[2]: - c[2,1] + h >= 5.5
 Height[3]: - c[3,1] + h >= 15
 Height[4]: - c[4,1] + h >= 21
 Height[5]: - c[5,1] + h >= 8.5
 Height[6]: - c[6,1] + h >= 6.5
 Height[7]: - c[7,1] + h >= 32
 Height[8]: - c[8,1] + h >= 35.5
 Height[9]: - c[9,1] + h >= 16
 LB[0,1,0]: c[1,0] - 28 delta[0,1,0] >= 8
 LB[0,1,1]: c[1,1] - 29 delta[0,1,1] >= 12
 LB[0,2,0]: c[2,0] - 28 delta[0,2,0] >= 14.5
 LB[0,2,1]: c[2,1] - 29 delta[0,2,1] >= 5.5
 LB[0,3,0]: c[3,0] - 28 delta[0,3,0] >= 18
 LB[0,3,1]: c[3,1] - 29 delta[0,3,1] >= 15
 LB[0,4,0]: c[4,0] - 28 delta[0,4,0] >= 42.5
 LB[0,4,1]: c[4,1] - 29 delta[0,4,1] >= 21
 LB[0,5,0]: c[5,0] - 28 delta[0,5,0] >= 23
 LB[0,5,1]: c[5,1] - 29 delta[0,5,1] >= 8.5
 LB[0,6,0]: c[6,0] - 28 delta[0,6,0] >= 26
 LB[0,6,1]: c[6,1] - 29 delta[0,6,1] >= 6.5
 LB[0,7,0]: c[7,0] - 28 delta[0,7,0] >= 35
 LB[0,7,1]: c[7,1] - 29 delta[0,7,1] >= 16
 LB[0,8,0]: c[8,0] - 28 delta[0,8,0] >= 40
 LB[0,8,1]: c[8,1] - 29 delta[0,8,1] >= 35.5
 LB[0,9,0]: c[9,0] - 28 delta[0,9,0] >= 12
 LB[0,9,1]: c[9,1] - 29 delta[0,9,1] >= 39
 LB[1,0,0]: c[0,0] - 19 delta[1,0,0] >= 20
 LB[1,0,1]: c[0,1] - 24 delta[1,0,1] >= 19
 LB[1,2,0]: c[2,0] - 31 delta[1,2,0] >= 14.5
 LB[1,2,1]: c[2,1] - 24 delta[1,2,1] >= 5.5
 LB[1,3,0]: c[3,0] - 21 delta[1,3,0] >= 18
 LB[1,3,1]: c[3,1] - 24 delta[1,3,1] >= 15
 LB[1,4,0]: c[4,0] - 16 delta[1,4,0] >= 42.5
 LB[1,4,1]: c[4,1] - 24 delta[1,4,1] >= 21
 LB[1,5,0]: c[5,0] - 31 delta[1,5,0] >= 23
 LB[1,5,1]: c[5,1] - 24 delta[1,5,1] >= 8.5
 LB[1,6,0]: c[6,0] - 17 delta[1,6,0] >= 26
 LB[1,6,1]: c[6,1] - 24 delta[1,6,1] >= 6.5
 LB[1,7,0]: c[7,0] - 16 delta[1,7,0] >= 35
 LB[1,7,1]: c[7,1] - 24 delta[1,7,1] >= 16
 LB[1,8,0]: c[8,0] - 31 delta[1,8,0] >= 40
 LB[1,8,1]: c[8,1] - 24 delta[1,8,1] >= 35.5
 LB[1,9,0]: c[9,0] - 31 delta[1,9,0] >= 12
 LB[1,9,1]: c[9,1] - 24 delta[1,9,1] >= 39
 LB[2,0,0]: c[0,0] - 29 delta[2,0,0] >= 20
 LB[2,0,1]: c[0,1] - 11 delta[2,0,1] >= 19
 LB[2,1,0]: c[1,0] - 29 delta[2,1,0] >= 8
 LB[2,1,1]: c[1,1] - 11 delta[2,1,1] >= 12
 LB[2,3,0]: c[3,0] - 29 delta[2,3,0] >= 18
 LB[2,3,1]: c[3,1] - 11 delta[2,3,1] >= 15
 LB[2,4,0]: c[4,0] - 29 delta[2,4,0] >= 42.5
 LB[2,4,1]: c[4,1] - 11 delta[2,4,1] >= 21
 LB[2,5,0]: c[5,0] - 29 delta[2,5,0] >= 23
 LB[2,5,1]: c[5,1] - 11 delta[2,5,1] >= 8.5
 LB[2,6,0]: c[6,0] - 29 delta[2,6,0] >= 26
 LB[2,6,1]: c[6,1] - 11 delta[2,6,1] >= 6.5
 LB[2,7,0]: c[7,0] - 29 delta[2,7,0] >= 35
 LB[2,7,1]: c[7,1] - 11 delta[2,7,1] >= 16
 LB[2,8,0]: c[8,0] - 29 delta[2,8,0] >= 40
 LB[2,8,1]: c[8,1] - 11 delta[2,8,1] >= 35.5
 LB[2,9,0]: c[9,0] - 29 delta[2,9,0] >= 12
 LB[2,9,1]: c[9,1] - 11 delta[2,9,1] >= 39
 LB[3,0,0]: c[0,0] - 26 delta[3,0,0] >= 20
 LB[3,0,1]: c[0,1] - 30 delta[3,0,1] >= 19
 LB[3,1,0]: c[1,0] - 26 delta[3,1,0] >= 8
 LB[3,1,1]: c[1,1] - 30 delta[3,1,1] >= 12
 LB[3,2,0]: c[2,0] - 26 delta[3,2,0] >= 14.5
 LB[3,2,1]: c[2,1] - 30 delta[3,2,1] >= 5.5
 LB[3,4,0]: c[4,0] - 26 delta[3,4,0] >= 42.5
 LB[3,4,1]: c[4,1] - 30 delta[3,4,1] >= 21
 LB[3,5,0]: c[5,0] - 26 delta[3,5,0] >= 23
 LB[3,5,1]: c[5,1] - 30 delta[3,5,1] >= 8.5
 LB[3,6,0]: c[6,0] - 26 delta[3,6,0] >= 26
 LB[3,6,1]: c[6,1] - 30 delta[3,6,1] >= 6.5
 LB[3,7,0]: c[7,0] - 26 delta[3,7,0] >= 35
 LB[3,7,1]: c[7,1] - 30 delta[3,7,1] >= 16
 LB[3,8,0]: c[8,0] - 26 delta[3,8,0] >= 40
 LB[3,8,1]: c[8,1] - 30 delta[3,8,1] >= 35.5
 LB[3,9,0]: c[9,0] - 26 delta[3,9,0] >= 12
 LB[3,9,1]: c[9,1] - 30 delta[3,9,1] >= 39
 LB[4,0,0]: c[0,0] - 68 delta[4,0,0] >= 20
 LB[4,0,1]: c[0,1] - 42 delta[4,0,1] >= 19
 LB[4,1,0]: c[1,0] - 80 delta[4,1,0] >= 8
 LB[4,1,1]: c[1,1] - 42 delta[4,1,1] >= 12
 LB[4,2,0]: c[2,0] - 80 delta[4,2,0] >= 14.5
 LB[4,2,1]: c[2,1] - 42 delta[4,2,1] >= 5.5
 LB[4,3,0]: c[3,0] - 70 delta[4,3,0] >= 18
 LB[4,3,1]: c[3,1] - 42 delta[4,3,1] >= 15
 LB[4,5,0]: c[5,0] - 80 delta[4,5,0] >= 23
 LB[4,5,1]: c[5,1] - 42 delta[4,5,1] >= 8.5
 LB[4,6,0]: c[6,0] - 66 delta[4,6,0] >= 26
 LB[4,6,1]: c[6,1] - 42 delta[4,6,1] >= 6.5
 LB[4,7,0]: c[7,0] - 60 delta[4,7,0] >= 35
 LB[4,7,1]: c[7,1] - 42 delta[4,7,1] >= 16
 LB[4,8,0]: c[8,0] - 80 delta[4,8,0] >= 40
 LB[4,8,1]: c[8,1] - 42 delta[4,8,1] >= 35.5
 LB[4,9,0]: c[9,0] - 80 delta[4,9,0] >= 12
 LB[4,9,1]: c[9,1] - 42 delta[4,9,1] >= 39
 LB[5,0,0]: c[0,0] - 57 delta[5,0,0] >= 20
 LB[5,0,1]: c[0,1] - 17 delta[5,0,1] >= 19
 LB[5,1,0]: c[1,0] - 69 delta[5,1,0] >= 8
 LB[5,1,1]: c[1,1] - 17 delta[5,1,1] >= 12
 LB[5,2,0]: c[2,0] - 69 delta[5,2,0] >= 14.5
 LB[5,2,1]: c[2,1] - 17 delta[5,2,1] >= 5.5
 LB[5,3,0]: c[3,0] - 59 delta[5,3,0] >= 18
 LB[5,3,1]: c[3,1] - 17 delta[5,3,1] >= 15
 LB[5,4,0]: c[4,0] - 46 delta[5,4,0] >= 42.5
 LB[5,4,1]: c[4,1] - 17 delta[5,4,1] >= 21
 LB[5,6,0]: c[6,0] - 55 delta[5,6,0] >= 26
 LB[5,6,1]: c[6,1] - 17 delta[5,6,1] >= 6.5
 LB[5,7,0]: c[7,0] - 49 delta[5,7,0] >= 35
 LB[5,7,1]: c[7,1] - 17 delta[5,7,1] >= 16
 LB[5,8,0]: c[8,0] - 69 delta[5,8,0] >= 40
 LB[5,8,1]: c[8,1] - 17 delta[5,8,1] >= 35.5
 LB[5,9,0]: c[9,0] - 69 delta[5,9,0] >= 12
 LB[5,9,1]: c[9,1] - 17 delta[5,9,1] >= 39
 LB[6,0,0]: c[0,0] - 39 delta[6,0,0] >= 20
 LB[6,0,1]: c[0,1] - 13 delta[6,0,1] >= 19
 LB[6,1,0]: c[1,0] - 51 delta[6,1,0] >= 8
 LB[6,1,1]: c[1,1] - 13 delta[6,1,1] >= 12
 LB[6,2,0]: c[2,0] - 51 delta[6,2,0] >= 14.5
 LB[6,2,1]: c[2,1] - 13 delta[6,2,1] >= 5.5
 LB[6,3,0]: c[3,0] - 41 delta[6,3,0] >= 18
 LB[6,3,1]: c[3,1] - 13 delta[6,3,1] >= 15
 LB[6,4,0]: c[4,0] - 38 delta[6,4,0] >= 42.5
 LB[6,4,1]: c[4,1] - 13 delta[6,4,1] >= 21
 LB[6,5,0]: c[5,0] - 51 delta[6,5,0] >= 23
 LB[6,5,1]: c[5,1] - 13 delta[6,5,1] >= 8.5
 LB[6,7,0]: c[7,0] - 38 delta[6,7,0] >= 35
 LB[6,7,1]: c[7,1] - 13 delta[6,7,1] >= 16
 LB[6,8,0]: c[8,0] - 51 delta[6,8,0] >= 40
 LB[6,8,1]: c[8,1] - 13 delta[6,8,1] >= 35.5
 LB[6,9,0]: c[9,0] - 51 delta[6,9,0] >= 12
 LB[6,9,1]: c[9,1] - 13 delta[6,9,1] >= 39
 LB[7,0,0]: c[0,0] - 62 delta[7,0,0] >= 20
 LB[7,0,1]: c[0,1] - 39 delta[7,0,1] >= 19
 LB[7,1,0]: c[1,0] - 74 delta[7,1,0] >= 8
 LB[7,1,1]: c[1,1] - 48 delta[7,1,1] >= 12
 LB[7,2,0]: c[2,0] - 74 delta[7,2,0] >= 14.5
 LB[7,2,1]: c[2,1] - 48 delta[7,2,1] >= 5.5
 LB[7,3,0]: c[3,0] - 64 delta[7,3,0] >= 18
 LB[7,3,1]: c[3,1] - 48 delta[7,3,1] >= 15
 LB[7,4,0]: c[4,0] - 50 delta[7,4,0] >= 42.5
 LB[7,4,1]: c[4,1] - 48 delta[7,4,1] >= 21
 LB[7,5,0]: c[5,0] - 74 delta[7,5,0] >= 23
 LB[7,5,1]: c[5,1] - 48 delta[7,5,1] >= 8.5
 LB[7,6,0]: c[6,0] - 60 delta[7,6,0] >= 26
 LB[7,6,1]: c[6,1] - 48 delta[7,6,1] >= 6.5
 LB[7,8,0]: c[8,0] - 74 delta[7,8,0] >= 40
 LB[7,8,1]: c[8,1] - 48 delta[7,8,1] >= 35.5
 LB[7,9,0]: c[9,0] - 74 delta[7,9,0] >= 12
 LB[7,9,1]: c[9,1] - 32 delta[7,9,1] >= 39
 LB[8,0,0]: c[0,0] - 109 delta[8,0,0] >= 20
 LB[8,0,1]: c[0,1] - 71 delta[8,0,1] >= 19
 LB[8,1,0]: c[1,0] - 121 delta[8,1,0] >= 8
 LB[8,1,1]: c[1,1] - 71 delta[8,1,1] >= 12
 LB[8,2,0]: c[2,0] - 121 delta[8,2,0] >= 14.5
 LB[8,2,1]: c[2,1] - 71 delta[8,2,1] >= 5.5
 LB[8,3,0]: c[3,0] - 111 delta[8,3,0] >= 18
 LB[8,3,1]: c[3,1] - 71 delta[8,3,1] >= 15
 LB[8,4,0]: c[4,0] - 95 delta[8,4,0] >= 42.5
 LB[8,4,1]: c[4,1] - 71 delta[8,4,1] >= 21
 LB[8,5,0]: c[5,0] - 121 delta[8,5,0] >= 23
 LB[8,5,1]: c[5,1] - 71 delta[8,5,1] >= 8.5
 LB[8,6,0]: c[6,0] - 107 delta[8,6,0] >= 26
 LB[8,6,1]: c[6,1] - 71 delta[8,6,1] >= 6.5
 LB[8,7,0]: c[7,0] - 101 delta[8,7,0] >= 35
 LB[8,7,1]: c[7,1] - 71 delta[8,7,1] >= 16
 LB[8,9,0]: c[9,0] - 121 delta[8,9,0] >= 12
 LB[8,9,1]: c[9,1] - 71 delta[8,9,1] >= 39
 LB[9,0,0]: c[0,0] - 24 delta[9,0,0] >= 20
 LB[9,0,1]: c[0,1] - 55 delta[9,0,1] >= 19
 LB[9,1,0]: c[1,0] - 24 delta[9,1,0] >= 8
 LB[9,1,1]: c[1,1] - 55 delta[9,1,1] >= 12
 LB[9,2,0]: c[2,0] - 24 delta[9,2,0] >= 14.5
 LB[9,2,1]: c[2,1] - 55 delta[9,2,1] >= 5.5
 LB[9,3,0]: c[3,0] - 24 delta[9,3,0] >= 18
 LB[9,3,1]: c[3,1] - 55 delta[9,3,1] >= 15
 LB[9,4,0]: c[4,0] - 24 delta[9,4,0] >= 42.5
 LB[9,4,1]: c[4,1] - 55 delta[9,4,1] >= 21
 LB[9,5,0]: c[5,0] - 24 delta[9,5,0] >= 23
 LB[9,5,1]: c[5,1] - 55 delta[9,5,1] >= 8.5
 LB[9,6,0]: c[6,0] - 24 delta[9,6,0] >= 26
 LB[9,6,1]: c[6,1] - 55 delta[9,6,1] >= 6.5
 LB[9,7,0]: c[7,0] - 24 delta[9,7,0] >= 35
 LB[9,7,1]: c[7,1] - 55 delta[9,7,1] >= 16
 LB[9,8,0]: c[8,0] - 24 delta[9,8,0] >= 40
 LB[9,8,1]: c[8,1] - 55 delta[9,8,1] >= 35.5
 UB[0,1,0]: c[0,0] + 31 delta[0,1,0] <= 137
 UB[0,1,1]: c[0,1] + 24 delta[0,1,1] <= 135
 UB[0,2,0]: c[0,0] + 29 delta[0,2,0] <= 137
 UB[0,2,1]: c[0,1] + 11 delta[0,2,1] <= 135
 UB[0,3,0]: c[0,0] + 26 delta[0,3,0] <= 137
 UB[0,3,1]: c[0,1] + 30 delta[0,3,1] <= 135
 UB[0,4,0]: c[0,0] + 80 delta[0,4,0] <= 137
 UB[0,4,1]: c[0,1] + 42 delta[0,4,1] <= 135
 UB[0,5,0]: c[0,0] + 69 delta[0,5,0] <= 137
 UB[0,5,1]: c[0,1] + 17 delta[0,5,1] <= 135
 UB[0,6,0]: c[0,0] + 51 delta[0,6,0] <= 137
 UB[0,6,1]: c[0,1] + 13 delta[0,6,1] <= 135
 UB[0,7,0]: c[0,0] + 74 delta[0,7,0] <= 137
 UB[0,7,1]: c[0,1] + 48 delta[0,7,1] <= 135
 UB[0,8,0]: c[0,0] + 121 delta[0,8,0] <= 137
 UB[0,8,1]: c[0,1] + 71 delta[0,8,1] <= 135
 UB[0,9,0]: c[0,0] + 24 delta[0,9,0] <= 137
 UB[0,9,1]: c[0,1] + 55 delta[0,9,1] <= 135
 UB[1,0,0]: c[1,0] + 16 delta[1,0,0] <= 122
 UB[1,0,1]: c[1,1] + 29 delta[1,0,1] <= 133
 UB[1,2,0]: c[1,0] + 29 delta[1,2,0] <= 122
 UB[1,2,1]: c[1,1] + 11 delta[1,2,1] <= 133
 UB[1,3,0]: c[1,0] + 16 delta[1,3,0] <= 122
 UB[1,3,1]: c[1,1] + 30 delta[1,3,1] <= 133
 UB[1,4,0]: c[1,0] + 65 delta[1,4,0] <= 122
 UB[1,4,1]: c[1,1] + 42 delta[1,4,1] <= 133
 UB[1,5,0]: c[1,0] + 69 delta[1,5,0] <= 122
 UB[1,5,1]: c[1,1] + 17 delta[1,5,1] <= 133
 UB[1,6,0]: c[1,0] + 37 delta[1,6,0] <= 122
 UB[1,6,1]: c[1,1] + 13 delta[1,6,1] <= 133
 UB[1,7,0]: c[1,0] + 59 delta[1,7,0] <= 122
 UB[1,7,1]: c[1,1] + 48 delta[1,7,1] <= 133
 UB[1,8,0]: c[1,0] + 121 delta[1,8,0] <= 122
 UB[1,8,1]: c[1,1] + 71 delta[1,8,1] <= 133
 UB[1,9,0]: c[1,0] + 24 delta[1,9,0] <= 122
 UB[1,9,1]: c[1,1] + 55 delta[1,9,1] <= 133
 UB[2,0,0]: c[2,0] + 28 delta[2,0,0] <= 130.5
 UB[2,0,1]: c[2,1] + 29 delta[2,0,1] <= 139.5
 UB[2,1,0]: c[2,0] + 31 delta[2,1,0] <= 130.5
 UB[2,1,1]: c[2,1] + 24 delta[2,1,1] <= 139.5
 UB[2,3,0]: c[2,0] + 26 delta[2,3,0] <= 130.5
 UB[2,3,1]: c[2,1] + 30 delta[2,3,1] <= 139.5
 UB[2,4,0]: c[2,0] + 80 delta[2,4,0] <= 130.5
 UB[2,4,1]: c[2,1] + 42 delta[2,4,1] <= 139.5
 UB[2,5,0]: c[2,0] + 69 delta[2,5,0] <= 130.5
 UB[2,5,1]: c[2,1] + 17 delta[2,5,1] <= 139.5
 UB[2,6,0]: c[2,0] + 51 delta[2,6,0] <= 130.5
 UB[2,6,1]: c[2,1] + 13 delta[2,6,1] <= 139.5
 UB[2,7,0]: c[2,0] + 74 delta[2,7,0] <= 130.5
 UB[2,7,1]: c[2,1] + 48 delta[2,7,1] <= 139.5
 UB[2,8,0]: c[2,0] + 121 delta[2,8,0] <= 130.5
 UB[2,8,1]: c[2,1] + 71 delta[2,8,1] <= 139.5
 UB[2,9,0]: c[2,0] + 24 delta[2,9,0] <= 130.5
 UB[2,9,1]: c[2,1] + 55 delta[2,9,1] <= 139.5
 UB[3,0,0]: c[3,0] + 28 delta[3,0,0] <= 137
 UB[3,0,1]: c[3,1] + 29 delta[3,0,1] <= 130
 UB[3,1,0]: c[3,0] + 31 delta[3,1,0] <= 137
 UB[3,1,1]: c[3,1] + 24 delta[3,1,1] <= 130
 UB[3,2,0]: c[3,0] + 29 delta[3,2,0] <= 137
 UB[3,2,1]: c[3,1] + 11 delta[3,2,1] <= 130
 UB[3,4,0]: c[3,0] + 80 delta[3,4,0] <= 137
 UB[3,4,1]: c[3,1] + 42 delta[3,4,1] <= 130
 UB[3,5,0]: c[3,0] + 69 delta[3,5,0] <= 137
 UB[3,5,1]: c[3,1] + 17 delta[3,5,1] <= 130
 UB[3,6,0]: c[3,0] + 51 delta[3,6,0] <= 137
 UB[3,6,1]: c[3,1] + 13 delta[3,6,1] <= 130
 UB[3,7,0]: c[3,0] + 74 delta[3,7,0] <= 137
 UB[3,7,1]: c[3,1] + 48 delta[3,7,1] <= 130
 UB[3,8,0]: c[3,0] + 121 delta[3,8,0] <= 137
 UB[3,8,1]: c[3,1] + 71 delta[3,8,1] <= 130
 UB[3,9,0]: c[3,0] + 24 delta[3,9,0] <= 137
 UB[3,9,1]: c[3,1] + 55 delta[3,9,1] <= 130
 UB[4,0,0]: c[4,0] + 16 delta[4,0,0] <= 107.5
 UB[4,0,1]: c[4,1] + 29 delta[4,0,1] <= 124
 UB[4,1,0]: c[4,0] + 31 delta[4,1,0] <= 107.5
 UB[4,1,1]: c[4,1] + 24 delta[4,1,1] <= 124
 UB[4,2,0]: c[4,0] + 29 delta[4,2,0] <= 107.5
 UB[4,2,1]: c[4,1] + 11 delta[4,2,1] <= 124
 UB[4,3,0]: c[4,0] + 16 delta[4,3,0] <= 107.5
 UB[4,3,1]: c[4,1] + 30 delta[4,3,1] <= 124
 UB[4,5,0]: c[4,0] + 69 delta[4,5,0] <= 107.5
 UB[4,5,1]: c[4,1] + 17 delta[4,5,1] <= 124
 UB[4,6,0]: c[4,0] + 37 delta[4,6,0] <= 107.5
 UB[4,6,1]: c[4,1] + 13 delta[4,6,1] <= 124
 UB[4,7,0]: c[4,0] + 54 delta[4,7,0] <= 107.5
 UB[4,7,1]: c[4,1] + 48 delta[4,7,1] <= 124
 UB[4,8,0]: c[4,0] + 121 delta[4,8,0] <= 107.5
 UB[4,8,1]: c[4,1] + 71 delta[4,8,1] <= 124
 UB[4,9,0]: c[4,0] + 24 delta[4,9,0] <= 107.5
 UB[4,9,1]: c[4,1] + 55 delta[4,9,1] <= 124
 UB[5,0,0]: c[5,0] + 16 delta[5,0,0] <= 99
 UB[5,0,1]: c[5,1] + 29 delta[5,0,1] <= 136.5
 UB[5,1,0]: c[5,0] + 31 delta[5,1,0] <= 99
 UB[5,1,1]: c[5,1] + 24 delta[5,1,1] <= 136.5
 UB[5,2,0]: c[5,0] + 29 delta[5,2,0] <= 99
 UB[5,2,1]: c[5,1] + 11 delta[5,2,1] <= 136.5
 UB[5,3,0]: c[5,0] + 16 delta[5,3,0] <= 99
 UB[5,3,1]: c[5,1] + 30 delta[5,3,1] <= 136.5
 UB[5,4,0]: c[5,0] + 57 delta[5,4,0] <= 99
 UB[5,4,1]: c[5,1] + 42 delta[5,4,1] <= 136.5
 UB[5,6,0]: c[5,0] + 37 delta[5,6,0] <= 99
 UB[5,6,1]: c[5,1] + 13 delta[5,6,1] <= 136.5
 UB[5,7,0]: c[5,0] + 54 delta[5,7,0] <= 99
 UB[5,7,1]: c[5,1] + 48 delta[5,7,1] <= 136.5
 UB[5,8,0]: c[5,0] + 121 delta[5,8,0] <= 99
 UB[5,8,1]: c[5,1] + 71 delta[5,8,1] <= 136.5
 UB[5,9,0]: c[5,0] + 24 delta[5,9,0] <= 99
 UB[5,9,1]: c[5,1] + 55 delta[5,9,1] <= 136.5
 UB[6,0,0]: c[6,0] + 16 delta[6,0,0] <= 120
 UB[6,0,1]: c[6,1] + 29 delta[6,0,1] <= 138.5
 UB[6,1,0]: c[6,0] + 31 delta[6,1,0] <= 120
 UB[6,1,1]: c[6,1] + 24 delta[6,1,1] <= 138.5
 UB[6,2,0]: c[6,0] + 29 delta[6,2,0] <= 120
 UB[6,2,1]: c[6,1] + 11 delta[6,2,1] <= 138.5
 UB[6,3,0]: c[6,0] + 16 delta[6,3,0] <= 120
 UB[6,3,1]: c[6,1] + 30 delta[6,3,1] <= 138.5
 UB[6,4,0]: c[6,0] + 67 delta[6,4,0] <= 120
 UB[6,4,1]: c[6,1] + 42 delta[6,4,1] <= 138.5
 UB[6,5,0]: c[6,0] + 69 delta[6,5,0] <= 120
 UB[6,5,1]: c[6,1] + 17 delta[6,5,1] <= 138.5
 UB[6,7,0]: c[6,0] + 61 delta[6,7,0] <= 120
 UB[6,7,1]: c[6,1] + 48 delta[6,7,1] <= 138.5
 UB[6,8,0]: c[6,0] + 121 delta[6,8,0] <= 120
 UB[6,8,1]: c[6,1] + 71 delta[6,8,1] <= 138.5
 UB[6,9,0]: c[6,0] + 24 delta[6,9,0] <= 120
 UB[6,9,1]: c[6,1] + 55 delta[6,9,1] <= 138.5
 UB[7,0,0]: c[7,0] + 16 delta[7,0,0] <= 106
 UB[7,0,1]: c[7,1] + 20 delta[7,0,1] <= 113
 UB[7,1,0]: c[7,0] + 31 delta[7,1,0] <= 106
 UB[7,1,1]: c[7,1] + 24 delta[7,1,1] <= 113
 UB[7,2,0]: c[7,0] + 29 delta[7,2,0] <= 106
 UB[7,2,1]: c[7,1] + 11 delta[7,2,1] <= 113
 UB[7,3,0]: c[7,0] + 16 delta[7,3,0] <= 106
 UB[7,3,1]: c[7,1] + 30 delta[7,3,1] <= 113
 UB[7,4,0]: c[7,0] + 56 delta[7,4,0] <= 106
 UB[7,4,1]: c[7,1] + 42 delta[7,4,1] <= 113
 UB[7,5,0]: c[7,0] + 69 delta[7,5,0] <= 106
 UB[7,5,1]: c[7,1] + 17 delta[7,5,1] <= 113
 UB[7,6,0]: c[7,0] + 37 delta[7,6,0] <= 106
 UB[7,6,1]: c[7,1] + 13 delta[7,6,1] <= 113
 UB[7,8,0]: c[7,0] + 121 delta[7,8,0] <= 106
 UB[7,8,1]: c[7,1] + 71 delta[7,8,1] <= 113
 UB[7,9,0]: c[7,0] + 24 delta[7,9,0] <= 106
 UB[7,9,1]: c[7,1] + 39 delta[7,9,1] <= 113
 UB[8,0,0]: c[8,0] + 16 delta[8,0,0] <= 64
 UB[8,0,1]: c[8,1] + 29 delta[8,0,1] <= 109.5
 UB[8,1,0]: c[8,0] + 31 delta[8,1,0] <= 64
 UB[8,1,1]: c[8,1] + 24 delta[8,1,1] <= 109.5
 UB[8,2,0]: c[8,0] + 29 delta[8,2,0] <= 64
 UB[8,2,1]: c[8,1] + 11 delta[8,2,1] <= 109.5
 UB[8,3,0]: c[8,0] + 16 delta[8,3,0] <= 64
 UB[8,3,1]: c[8,1] + 30 delta[8,3,1] <= 109.5
 UB[8,4,0]: c[8,0] + 54 delta[8,4,0] <= 64
 UB[8,4,1]: c[8,1] + 42 delta[8,4,1] <= 109.5
 UB[8,5,0]: c[8,0] + 69 delta[8,5,0] <= 64
 UB[8,5,1]: c[8,1] + 17 delta[8,5,1] <= 109.5
 UB[8,6,0]: c[8,0] + 37 delta[8,6,0] <= 64
 UB[8,6,1]: c[8,1] + 13 delta[8,6,1] <= 109.5
 UB[8,7,0]: c[8,0] + 54 delta[8,7,0] <= 64
 UB[8,7,1]: c[8,1] + 48 delta[8,7,1] <= 109.5
 UB[8,9,0]: c[8,0] + 24 delta[8,9,0] <= 64
 UB[8,9,1]: c[8,1] + 55 delta[8,9,1] <= 109.5
 UB[9,0,0]: c[9,0] + 28 delta[9,0,0] <= 133
 UB[9,0,1]: c[9,1] + 29 delta[9,0,1] <= 129
 UB[9,1,0]: c[9,0] + 31 delta[9,1,0] <= 133
 UB[9,1,1]: c[9,1] + 24 delta[9,1,1] <= 129
 UB[9,2,0]: c[9,0] + 29 delta[9,2,0] <= 133
 UB[9,2,1]: c[9,1] + 11 delta[9,2,1] <= 129
 UB[9,3,0]: c[9,0] + 26 delta[9,3,0] <= 133
 UB[9,3,1]: c[9,1] + 30 delta[9,3,1] <= 129
 UB[9,4,0]: c[9,0] + 80 delta[9,4,0] <= 133
 UB[9,4,1]: c[9,1] + 42 delta[9,4,1] <= 129
 UB[9,5,0]: c[9,0] + 69 delta[9,5,0] <= 133
 UB[9,5,1]: c[9,1] + 17 delta[9,5,1] <= 129
 UB[9,6,0]: c[9,0] + 51 delta[9,6,0] <= 133
 UB[9,6,1]: c[9,1] + 13 delta[9,6,1] <= 129
 UB[9,7,0]: c[9,0] + 74 delta[9,7,0] <= 133
 UB[9,7,1]: c[9,1] + 48 delta[9,7,1] <= 129
 UB[9,8,0]: c[9,0] + 121 delta[9,8,0] <= 133
 UB[9,8,1]: c[9,1] + 71 delta[9,8,1] <= 129
 PM[0,1,0]: c[0,0] - c[1,0] + 145 delta[0,1,0] <= 129
 PM[0,1,1]: c[0,1] - c[1,1] + 145 delta[0,1,1] <= 123
 PM[0,2,0]: c[0,0] - c[2,0] + 145 delta[0,2,0] <= 122.5
 PM[0,2,1]: c[0,1] - c[2,1] + 145 delta[0,2,1] <= 129.5
 PM[0,3,0]: c[0,0] - c[3,0] + 145 delta[0,3,0] <= 119
 PM[0,3,1]: c[0,1] - c[3,1] + 145 delta[0,3,1] <= 120
 PM[0,4,0]: c[0,0] - c[4,0] + 145 delta[0,4,0] <= 94.5
 PM[0,4,1]: c[0,1] - c[4,1] + 145 delta[0,4,1] <= 114
 PM[0,5,0]: c[0,0] - c[5,0] + 145 delta[0,5,0] <= 114
 PM[0,5,1]: c[0,1] - c[5,1] + 145 delta[0,5,1] <= 126.5
 PM[0,6,0]: c[0,0] - c[6,0] + 145 delta[0,6,0] <= 111
 PM[0,6,1]: c[0,1] - c[6,1] + 145 delta[0,6,1] <= 128.5
 PM[0,7,0]: c[0,0] - c[7,0] + 145 delta[0,7,0] <= 102
 PM[0,7,1]: c[0,1] - c[7,1] + 145 delta[0,7,1] <= 119
 PM[0,8,0]: c[0,0] - c[8,0] + 145 delta[0,8,0] <= 97
 PM[0,8,1]: c[0,1] - c[8,1] + 145 delta[0,8,1] <= 99.5
 PM[0,9,0]: c[0,0] - c[9,0] + 145 delta[0,9,0] <= 125
 PM[0,9,1]: c[0,1] - c[9,1] + 145 delta[0,9,1] <= 96
 PM[1,0,0]: - c[0,0] + c[1,0] + 133 delta[1,0,0] <= 102
 PM[1,0,1]: - c[0,1] + c[1,1] + 145 delta[1,0,1] <= 114
 PM[1,2,0]: c[1,0] - c[2,0] + 145 delta[1,2,0] <= 107.5
 PM[1,2,1]: c[1,1] - c[2,1] + 145 delta[1,2,1] <= 127.5
 PM[1,3,0]: c[1,0] - c[3,0] + 135 delta[1,3,0] <= 104
 PM[1,3,1]: c[1,1] - c[3,1] + 145 delta[1,3,1] <= 118
 PM[1,4,0]: c[1,0] - c[4,0] + 130 delta[1,4,0] <= 79.5
 PM[1,4,1]: c[1,1] - c[4,1] + 145 delta[1,4,1] <= 112
 PM[1,5,0]: c[1,0] - c[5,0] + 145 delta[1,5,0] <= 99
 PM[1,5,1]: c[1,1] - c[5,1] + 145 delta[1,5,1] <= 124.5
 PM[1,6,0]: c[1,0] - c[6,0] + 131 delta[1,6,0] <= 96
 PM[1,6,1]: c[1,1] - c[6,1] + 145 delta[1,6,1] <= 126.5
 PM[1,7,0]: c[1,0] - c[7,0] + 130 delta[1,7,0] <= 87
 PM[1,7,1]: c[1,1] - c[7,1] + 145 delta[1,7,1] <= 117
 PM[1,8,0]: c[1,0] - c[8,0] + 145 delta[1,8,0] <= 82
 PM[1,8,1]: c[1,1] - c[8,1] + 145 delta[1,8,1] <= 97.5
 PM[1,9,0]: c[1,0] - c[9,0] + 145 delta[1,9,0] <= 110
 PM[1,9,1]: c[1,1] - c[9,1] + 145 delta[1,9,1] <= 94
 PM[2,0,0]: - c[0,0] + c[2,0] + 145 delta[2,0,0] <= 110.5
 PM[2,0,1]: - c[0,1] + c[2,1] + 145 delta[2,0,1] <= 120.5
 PM[2,1,0]: - c[1,0] + c[2,0] + 145 delta[2,1,0] <= 122.5
 PM[2,1,1]: - c[1,1] + c[2,1] + 145 delta[2,1,1] <= 127.5
 PM[2,3,0]: c[2,0] - c[3,0] + 145 delta[2,3,0] <= 112.5
 PM[2,3,1]: c[2,1] - c[3,1] + 145 delta[2,3,1] <= 124.5
 PM[2,4,0]: c[2,0] - c[4,0] + 145 delta[2,4,0] <= 88
 PM[2,4,1]: c[2,1] - c[4,1] + 145 delta[2,4,1] <= 118.5
 PM[2,5,0]: c[2,0] - c[5,0] + 145 delta[2,5,0] <= 107.5
 PM[2,5,1]: c[2,1] - c[5,1] + 145 delta[2,5,1] <= 131
 PM[2,6,0]: c[2,0] - c[6,0] + 145 delta[2,6,0] <= 104.5
 PM[2,6,1]: c[2,1] - c[6,1] + 145 delta[2,6,1] <= 133
 PM[2,7,0]: c[2,0] - c[7,0] + 145 delta[2,7,0] <= 95.5
 PM[2,7,1]: c[2,1] - c[7,1] + 145 delta[2,7,1] <= 123.5
 PM[2,8,0]: c[2,0] - c[8,0] + 145 delta[2,8,0] <= 90.5
 PM[2,8,1]: c[2,1] - c[8,1] + 145 delta[2,8,1] <= 104
 PM[2,9,0]: c[2,0] - c[9,0] + 145 delta[2,9,0] <= 118.5
 PM[2,9,1]: c[2,1] - c[9,1] + 145 delta[2,9,1] <= 100.5
 PM[3,0,0]: - c[0,0] + c[3,0] + 145 delta[3,0,0] <= 117
 PM[3,0,1]: - c[0,1] + c[3,1] + 145 delta[3,0,1] <= 111
 PM[3,1,0]: - c[1,0] + c[3,0] + 145 delta[3,1,0] <= 129
 PM[3,1,1]: - c[1,1] + c[3,1] + 145 delta[3,1,1] <= 118
 PM[3,2,0]: - c[2,0] + c[3,0] + 145 delta[3,2,0] <= 122.5
 PM[3,2,1]: - c[2,1] + c[3,1] + 145 delta[3,2,1] <= 124.5
 PM[3,4,0]: c[3,0] - c[4,0] + 145 delta[3,4,0] <= 94.5
 PM[3,4,1]: c[3,1] - c[4,1] + 145 delta[3,4,1] <= 109
 PM[3,5,0]: c[3,0] - c[5,0] + 145 delta[3,5,0] <= 114
 PM[3,5,1]: c[3,1] - c[5,1] + 145 delta[3,5,1] <= 121.5
 PM[3,6,0]: c[3,0] - c[6,0] + 145 delta[3,6,0] <= 111
 PM[3,6,1]: c[3,1] - c[6,1] + 145 delta[3,6,1] <= 123.5
 PM[3,7,0]: c[3,0] - c[7,0] + 145 delta[3,7,0] <= 102
 PM[3,7,1]: c[3,1] - c[7,1] + 145 delta[3,7,1] <= 114
 PM[3,8,0]: c[3,0] - c[8,0] + 145 delta[3,8,0] <= 97
 PM[3,8,1]: c[3,1] - c[8,1] + 145 delta[3,8,1] <= 94.5
 PM[3,9,0]: c[3,0] - c[9,0] + 145 delta[3,9,0] <= 125
 PM[3,9,1]: c[3,1] - c[9,1] + 145 delta[3,9,1] <= 91
 PM[4,0,0]: - c[0,0] + c[4,0] + 133 delta[4,0,0] <= 87.5
 PM[4,0,1]: - c[0,1] + c[4,1] + 145 delta[4,0,1] <= 105
 PM[4,1,0]: - c[1,0] + c[4,0] + 145 delta[4,1,0] <= 99.5
 PM[4,1,1]: - c[1,1] + c[4,1] + 145 delta[4,1,1] <= 112
 PM[4,2,0]: - c[2,0] + c[4,0] + 145 delta[4,2,0] <= 93
 PM[4,2,1]: - c[2,1] + c[4,1] + 145 delta[4,2,1] <= 118.5
 PM[4,3,0]: - c[3,0] + c[4,0] + 135 delta[4,3,0] <= 89.5
 PM[4,3,1]: - c[3,1] + c[4,1] + 145 delta[4,3,1] <= 109
 PM[4,5,0]: c[4,0] - c[5,0] + 145 delta[4,5,0] <= 84.5
 PM[4,5,1]: c[4,1] - c[5,1] + 145 delta[4,5,1] <= 115.5
 PM[4,6,0]: c[4,0] - c[6,0] + 131 delta[4,6,0] <= 81.5
 PM[4,6,1]: c[4,1] - c[6,1] + 145 delta[4,6,1] <= 117.5
 PM[4,7,0]: c[4,0] - c[7,0] + 125 delta[4,7,0] <= 72.5
 PM[4,7,1]: c[4,1] - c[7,1] + 145 delta[4,7,1] <= 108
 PM[4,8,0]: c[4,0] - c[8,0] + 145 delta[4,8,0] <= 67.5
 PM[4,8,1]: c[4,1] - c[8,1] + 145 delta[4,8,1] <= 88.5
 PM[4,9,0]: c[4,0] - c[9,0] + 145 delta[4,9,0] <= 95.5
 PM[4,9,1]: c[4,1] - c[9,1] + 145 delta[4,9,1] <= 85
 PM[5,0,0]: - c[0,0] + c[5,0] + 133 delta[5,0,0] <= 79
 PM[5,0,1]: - c[0,1] + c[5,1] + 145 delta[5,0,1] <= 117.5
 PM[5,1,0]: - c[1,0] + c[5,0] + 145 delta[5,1,0] <= 91
 PM[5,1,1]: - c[1,1] + c[5,1] + 145 delta[5,1,1] <= 124.5
 PM[5,2,0]: - c[2,0] + c[5,0] + 145 delta[5,2,0] <= 84.5
 PM[5,2,1]: - c[2,1] + c[5,1] + 145 delta[5,2,1] <= 131
 PM[5,3,0]: - c[3,0] + c[5,0] + 135 delta[5,3,0] <= 81
 PM[5,3,1]: - c[3,1] + c[5,1] + 145 delta[5,3,1] <= 121.5
 PM[5,4,0]: - c[4,0] + c[5,0] + 122 delta[5,4,0] <= 56.5
 PM[5,4,1]: - c[4,1] + c[5,1] + 145 delta[5,4,1] <= 115.5
 PM[5,6,0]: c[5,0] - c[6,0] + 131 delta[5,6,0] <= 73
 PM[5,6,1]: c[5,1] - c[6,1] + 145 delta[5,6,1] <= 130
 PM[5,7,0]: c[5,0] - c[7,0] + 125 delta[5,7,0] <= 64
 PM[5,7,1]: c[5,1] - c[7,1] + 145 delta[5,7,1] <= 120.5
 PM[5,8,0]: c[5,0] - c[8,0] + 145 delta[5,8,0] <= 59
 PM[5,8,1]: c[5,1] - c[8,1] + 145 delta[5,8,1] <= 101
 PM[5,9,0]: c[5,0] - c[9,0] + 145 delta[5,9,0] <= 87
 PM[5,9,1]: c[5,1] - c[9,1] + 145 delta[5,9,1] <= 97.5
 PM[6,0,0]: - c[0,0] + c[6,0] + 133 delta[6,0,0] <= 100
 PM[6,0,1]: - c[0,1] + c[6,1] + 145 delta[6,0,1] <= 119.5
 PM[6,1,0]: - c[1,0] + c[6,0] + 145 delta[6,1,0] <= 112
 PM[6,1,1]: - c[1,1] + c[6,1] + 145 delta[6,1,1] <= 126.5
 PM[6,2,0]: - c[2,0] + c[6,0] + 145 delta[6,2,0] <= 105.5
 PM[6,2,1]: - c[2,1] + c[6,1] + 145 delta[6,2,1] <= 133
 PM[6,3,0]: - c[3,0] + c[6,0] + 135 delta[6,3,0] <= 102
 PM[6,3,1]: - c[3,1] + c[6,1] + 145 delta[6,3,1] <= 123.5
 PM[6,4,0]: - c[4,0] + c[6,0] + 132 delta[6,4,0] <= 77.5
 PM[6,4,1]: - c[4,1] + c[6,1] + 145 delta[6,4,1] <= 117.5
 PM[6,5,0]: - c[5,0] + c[6,0] + 145 delta[6,5,0] <= 97
 PM[6,5,1]: - c[5,1] + c[6,1] + 145 delta[6,5,1] <= 130
 PM[6,7,0]: c[6,0] - c[7,0] + 132 delta[6,7,0] <= 85
 PM[6,7,1]: c[6,1] - c[7,1] + 145 delta[6,7,1] <= 122.5
 PM[6,8,0]: c[6,0] - c[8,0] + 145 delta[6,8,0] <= 80
 PM[6,8,1]: c[6,1] - c[8,1] + 145 delta[6,8,1] <= 103
 PM[6,9,0]: c[6,0] - c[9,0] + 145 delta[6,9,0] <= 108
 PM[6,9,1]: c[6,1] - c[9,1] + 145 delta[6,9,1] <= 99.5
 PM[7,0,0]: - c[0,0] + c[7,0] + 133 delta[7,0,0] <= 86
 PM[7,0,1]: - c[0,1] + c[7,1] + 136 delta[7,0,1] <= 94
 PM[7,1,0]: - c[1,0] + c[7,0] + 145 delta[7,1,0] <= 98
 PM[7,1,1]: - c[1,1] + c[7,1] + 145 delta[7,1,1] <= 101
 PM[7,2,0]: - c[2,0] + c[7,0] + 145 delta[7,2,0] <= 91.5
 PM[7,2,1]: - c[2,1] + c[7,1] + 145 delta[7,2,1] <= 107.5
 PM[7,3,0]: - c[3,0] + c[7,0] + 135 delta[7,3,0] <= 88
 PM[7,3,1]: - c[3,1] + c[7,1] + 145 delta[7,3,1] <= 98
 PM[7,4,0]: - c[4,0] + c[7,0] + 121 delta[7,4,0] <= 63.5
 PM[7,4,1]: - c[4,1] + c[7,1] + 145 delta[7,4,1] <= 92
 PM[7,5,0]: - c[5,0] + c[7,0] + 145 delta[7,5,0] <= 83
 PM[7,5,1]: - c[5,1] + c[7,1] + 145 delta[7,5,1] <= 104.5
 PM[7,6,0]: - c[6,0] + c[7,0] + 131 delta[7,6,0] <= 80
 PM[7,6,1]: - c[6,1] + c[7,1] + 145 delta[7,6,1] <= 106.5
 PM[7,8,0]: c[7,0] - c[8,0] + 145 delta[7,8,0] <= 66
 PM[7,8,1]: c[7,1] - c[8,1] + 145 delta[7,8,1] <= 77.5
 PM[7,9,0]: c[7,0] - c[9,0] + 145 delta[7,9,0] <= 94
 PM[7,9,1]: c[7,1] - c[9,1] + 129 delta[7,9,1] <= 74
 PM[8,0,0]: - c[0,0] + c[8,0] + 133 delta[8,0,0] <= 44
 PM[8,0,1]: - c[0,1] + c[8,1] + 145 delta[8,0,1] <= 90.5
 PM[8,1,0]: - c[1,0] + c[8,0] + 145 delta[8,1,0] <= 56
 PM[8,1,1]: - c[1,1] + c[8,1] + 145 delta[8,1,1] <= 97.5
 PM[8,2,0]: - c[2,0] + c[8,0] + 145 delta[8,2,0] <= 49.5
 PM[8,2,1]: - c[2,1] + c[8,1] + 145 delta[8,2,1] <= 104
 PM[8,3,0]: - c[3,0] + c[8,0] + 135 delta[8,3,0] <= 46
 PM[8,3,1]: - c[3,1] + c[8,1] + 145 delta[8,3,1] <= 94.5
 PM[8,4,0]: - c[4,0] + c[8,0] + 119 delta[8,4,0] <= 21.5
 PM[8,4,1]: - c[4,1] + c[8,1] + 145 delta[8,4,1] <= 88.5
 PM[8,5,0]: - c[5,0] + c[8,0] + 145 delta[8,5,0] <= 41
 PM[8,5,1]: - c[5,1] + c[8,1] + 145 delta[8,5,1] <= 101
 PM[8,6,0]: - c[6,0] + c[8,0] + 131 delta[8,6,0] <= 38
 PM[8,6,1]: - c[6,1] + c[8,1] + 145 delta[8,6,1] <= 103
 PM[8,7,0]: - c[7,0] + c[8,0] + 125 delta[8,7,0] <= 29
 PM[8,7,1]: - c[7,1] + c[8,1] + 145 delta[8,7,1] <= 93.5
 PM[8,9,0]: c[8,0] - c[9,0] + 145 delta[8,9,0] <= 52
 PM[8,9,1]: c[8,1] - c[9,1] + 145 delta[8,9,1] <= 70.5
 PM[9,0,0]: - c[0,0] + c[9,0] + 145 delta[9,0,0] <= 113
 PM[9,0,1]: - c[0,1] + c[9,1] + 145 delta[9,0,1] <= 110
 PM[9,1,0]: - c[1,0] + c[9,0] + 145 delta[9,1,0] <= 125
 PM[9,1,1]: - c[1,1] + c[9,1] + 145 delta[9,1,1] <= 117
 PM[9,2,0]: - c[2,0] + c[9,0] + 145 delta[9,2,0] <= 118.5
 PM[9,2,1]: - c[2,1] + c[9,1] + 145 delta[9,2,1] <= 123.5
 PM[9,3,0]: - c[3,0] + c[9,0] + 145 delta[9,3,0] <= 115
 PM[9,3,1]: - c[3,1] + c[9,1] + 145 delta[9,3,1] <= 114
 PM[9,4,0]: - c[4,0] + c[9,0] + 145 delta[9,4,0] <= 90.5
 PM[9,4,1]: - c[4,1] + c[9,1] + 145 delta[9,4,1] <= 108
 PM[9,5,0]: - c[5,0] + c[9,0] + 145 delta[9,5,0] <= 110
 PM[9,5,1]: - c[5,1] + c[9,1] + 145 delta[9,5,1] <= 120.5
 PM[9,6,0]: - c[6,0] + c[9,0] + 145 delta[9,6,0] <= 107
 PM[9,6,1]: - c[6,1] + c[9,1] + 145 delta[9,6,1] <= 122.5
 PM[9,7,0]: - c[7,0] + c[9,0] + 145 delta[9,7,0] <= 98
 PM[9,7,1]: - c[7,1] + c[9,1] + 145 delta[9,7,1] <= 113
 PM[9,8,0]: - c[8,0] + c[9,0] + 145 delta[9,8,0] <= 93
 PM[9,8,1]: - c[8,1] + c[9,1] + 145 delta[9,8,1] <= 93.5
 S1[0,1]: delta[0,1,0] + delta[0,1,1] + delta[1,0,0] + delta[1,0,1] = 1
 S1[0,2]: delta[0,2,0] + delta[0,2,1] + delta[2,0,0] + delta[2,0,1] = 1
 S1[0,3]: delta[0,3,0] + delta[0,3,1] + delta[3,0,0] + delta[3,0,1] = 1
 S1[0,4]: delta[0,4,0] + delta[0,4,1] + delta[4,0,0] + delta[4,0,1] = 1
 S1[0,5]: delta[0,5,0] + delta[0,5,1] + delta[5,0,0] + delta[5,0,1] = 1
 S1[0,6]: delta[0,6,0] + delta[0,6,1] + delta[6,0,0] + delta[6,0,1] = 1
 S1[0,7]: delta[0,7,0] + delta[0,7,1] + delta[7,0,0] + delta[7,0,1] = 1
 S1[0,8]: delta[0,8,0] + delta[0,8,1] + delta[8,0,0] + delta[8,0,1] = 1
 S1[0,9]: delta[0,9,0] + delta[0,9,1] + delta[9,0,0] + delta[9,0,1] = 1
 S1[1,2]: delta[1,2,0] + delta[1,2,1] + delta[2,1,0] + delta[2,1,1] = 1
 S1[1,3]: delta[1,3,0] + delta[1,3,1] + delta[3,1,0] + delta[3,1,1] = 1
 S1[1,4]: delta[1,4,0] + delta[1,4,1] + delta[4,1,0] + delta[4,1,1] = 1
 S1[1,5]: delta[1,5,0] + delta[1,5,1] + delta[5,1,0] + delta[5,1,1] = 1
 S1[1,6]: delta[1,6,0] + delta[1,6,1] + delta[6,1,0] + delta[6,1,1] = 1
 S1[1,7]: delta[1,7,0] + delta[1,7,1] + delta[7,1,0] + delta[7,1,1] = 1
 S1[1,8]: delta[1,8,0] + delta[1,8,1] + delta[8,1,0] + delta[8,1,1] = 1
 S1[1,9]: delta[1,9,0] + delta[1,9,1] + delta[9,1,0] + delta[9,1,1] = 1
 S1[2,3]: delta[2,3,0] + delta[2,3,1] + delta[3,2,0] + delta[3,2,1] = 1
 S1[2,4]: delta[2,4,0] + delta[2,4,1] + delta[4,2,0] + delta[4,2,1] = 1
 S1[2,5]: delta[2,5,0] + delta[2,5,1] + delta[5,2,0] + delta[5,2,1] = 1
 S1[2,6]: delta[2,6,0] + delta[2,6,1] + delta[6,2,0] + delta[6,2,1] = 1
 S1[2,7]: delta[2,7,0] + delta[2,7,1] + delta[7,2,0] + delta[7,2,1] = 1
 S1[2,8]: delta[2,8,0] + delta[2,8,1] + delta[8,2,0] + delta[8,2,1] = 1
 S1[2,9]: delta[2,9,0] + delta[2,9,1] + delta[9,2,0] + delta[9,2,1] = 1
 S1[3,4]: delta[3,4,0] + delta[3,4,1] + delta[4,3,0] + delta[4,3,1] = 1
 S1[3,5]: delta[3,5,0] + delta[3,5,1] + delta[5,3,0] + delta[5,3,1] = 1
 S1[3,6]: delta[3,6,0] + delta[3,6,1] + delta[6,3,0] + delta[6,3,1] = 1
 S1[3,7]: delta[3,7,0] + delta[3,7,1] + delta[7,3,0] + delta[7,3,1] = 1
 S1[3,8]: delta[3,8,0] + delta[3,8,1] + delta[8,3,0] + delta[8,3,1] = 1
 S1[3,9]: delta[3,9,0] + delta[3,9,1] + delta[9,3,0] + delta[9,3,1] = 1
 S1[4,5]: delta[4,5,0] + delta[4,5,1] + delta[5,4,0] + delta[5,4,1] = 1
 S1[4,6]: delta[4,6,0] + delta[4,6,1] + delta[6,4,0] + delta[6,4,1] = 1
 S1[4,7]: delta[4,7,0] + delta[4,7,1] + delta[7,4,0] + delta[7,4,1] = 1
 S1[4,8]: delta[4,8,0] + delta[4,8,1] + delta[8,4,0] + delta[8,4,1] = 1
 S1[4,9]: delta[4,9,0] + delta[4,9,1] + delta[9,4,0] + delta[9,4,1] = 1
 S1[5,6]: delta[5,6,0] + delta[5,6,1] + delta[6,5,0] + delta[6,5,1] = 1
 S1[5,7]: delta[5,7,0] + delta[5,7,1] + delta[7,5,0] + delta[7,5,1] = 1
 S1[5,8]: delta[5,8,0] + delta[5,8,1] + delta[8,5,0] + delta[8,5,1] = 1
 S1[5,9]: delta[5,9,0] + delta[5,9,1] + delta[9,5,0] + delta[9,5,1] = 1
 S1[6,7]: delta[6,7,0] + delta[6,7,1] + delta[7,6,0] + delta[7,6,1] = 1
 S1[6,8]: delta[6,8,0] + delta[6,8,1] + delta[8,6,0] + delta[8,6,1] = 1
 S1[6,9]: delta[6,9,0] + delta[6,9,1] + delta[9,6,0] + delta[9,6,1] = 1
 S1[7,8]: delta[7,8,0] + delta[7,8,1] + delta[8,7,0] + delta[8,7,1] = 1
 S1[7,9]: delta[7,9,0] + delta[7,9,1] + delta[9,7,0] + delta[9,7,1] = 1
 S1[8,9]: delta[8,9,0] + delta[8,9,1] + delta[9,8,0] + delta[9,8,1] = 1
Bounds
 20 <= c[0,0] <= 137
 19 <= c[0,1] <= 135
 8 <= c[1,0] <= 122
 12 <= c[1,1] <= 133
 14.5 <= c[2,0] <= 130.5
 5.5 <= c[2,1] <= 139.5
 18 <= c[3,0] <= 137
 15 <= c[3,1] <= 130
 42.5 <= c[4,0] <= 107.5
 21 <= c[4,1] <= 124
 23 <= c[5,0] <= 99
 8.5 <= c[5,1] <= 136.5
 26 <= c[6,0] <= 120
 6.5 <= c[6,1] <= 138.5
 35 <= c[7,0] <= 106
 16 <= c[7,1] <= 113
 40 <= c[8,0] <= 64
 35.5 <= c[8,1] <= 109.5
 12 <= c[9,0] <= 133
 39 <= c[9,1] <= 129
 39 <= h <= 145
Binaries
 delta[0,1,0] delta[0,1,1] delta[0,2,0] delta[0,2,1] delta[0,3,0]
 delta[0,3,1] delta[0,4,0] delta[0,4,1] delta[0,5,0] delta[0,5,1]
 delta[0,6,0] delta[0,6,1] delta[0,7,0] delta[0,7,1] delta[0,8,0]
 delta[0,8,1] delta[0,9,0] delta[0,9,1] delta[1,0,0] delta[1,0,1]
 delta[1,2,0] delta[1,2,1] delta[1,3,0] delta[1,3,1] delta[1,4,0]
 delta[1,4,1] delta[1,5,0] delta[1,5,1] delta[1,6,0] delta[1,6,1]
 delta[1,7,0] delta[1,7,1] delta[1,8,0] delta[1,8,1] delta[1,9,0]
 delta[1,9,1] delta[2,0,0] delta[2,0,1] delta[2,1,0] delta[2,1,1]
 delta[2,3,0] delta[2,3,1] delta[2,4,0] delta[2,4,1] delta[2,5,0]
 delta[2,5,1] delta[2,6,0] delta[2,6,1] delta[2,7,0] delta[2,7,1]
 delta[2,8,0] delta[2,8,1] delta[2,9,0] delta[2,9,1] delta[3,0,0]
 delta[3,0,1] delta[3,1,0] delta[3,1,1] delta[3,2,0] delta[3,2,1]
 delta[3,4,0] delta[3,4,1] delta[3,5,0] delta[3,5,1] delta[3,6,0]
 delta[3,6,1] delta[3,7,0] delta[3,7,1] delta[3,8,0] delta[3,8,1]
 delta[3,9,0] delta[3,9,1] delta[4,0,0] delta[4,0,1] delta[4,1,0]
 delta[4,1,1] delta[4,2,0] delta[4,2,1] delta[4,3,0] delta[4,3,1]
 delta[4,5,0] delta[4,5,1] delta[4,6,0] delta[4,6,1] delta[4,7,0]
 delta[4,7,1] delta[4,8,0] delta[4,8,1] delta[4,9,0] delta[4,9,1]
 delta[5,0,0] delta[5,0,1] delta[5,1,0] delta[5,1,1] delta[5,2,0]
 delta[5,2,1] delta[5,3,0] delta[5,3,1] delta[5,4,0] delta[5,4,1]
 delta[5,6,0] delta[5,6,1] delta[5,7,0] delta[5,7,1] delta[5,8,0]
 delta[5,8,1] delta[5,9,0] delta[5,9,1] delta[6,0,0] delta[6,0,1]
 delta[6,1,0] delta[6,1,1] delta[6,2,0] delta[6,2,1] delta[6,3,0]
 delta[6,3,1] delta[6,4,0] delta[6,4,1] delta[6,5,0] delta[6,5,1]
 delta[6,7,0] delta[6,7,1] delta[6,8,0] delta[6,8,1] delta[6,9,0]
 delta[6,9,1] delta[7,0,0] delta[7,0,1] delta[7,1,0] delta[7,1,1]
 delta[7,2,0] delta[7,2,1] delta[7,3,0] delta[7,3,1] delta[7,4,0]
 delta[7,4,1] delta[7,5,0] delta[7,5,1] delta[7,6,0] delta[7,6,1]
 delta[7,8,0] delta[7,8,1] delta[7,9,0] delta[7,9,1] delta[8,0,0]
 delta[8,0,1] delta[8,1,0] delta[8,1,1] delta[8,2,0] delta[8,2,1]
 delta[8,3,0] delta[8,3,1] delta[8,4,0] delta[8,4,1] delta[8,5,0]
 delta[8,5,1] delta[8,6,0] delta[8,6,1] delta[8,7,0] delta[8,7,1]
 delta[8,9,0] delta[8,9,1] delta[9,0,0] delta[9,0,1] delta[9,1,0]
 delta[9,1,1] delta[9,2,0] delta[9,2,1] delta[9,3,0] delta[9,3,1]
 delta[9,4,0] delta[9,4,1] delta[9,5,0] delta[9,5,1] delta[9,6,0]
 delta[9,6,1] delta[9,7,0] delta[9,7,1] delta[9,8,0] delta[9,8,1]
End
